<?xml version = "1.0" standalone="yes"?>
<!-- This file has been generated by DOcplex version 2.23.222  -->
<CPLEXSolution version="1.0">
 <header
   problemName="CVRP"
   objectiveValue="13855.7"
  />
 <variables>
  <variable name="x_0_1" index="0" value="1.00000"/>
  <variable name="x_0_2" index="1" value="1.00000"/>
  <variable name="x_0_3" index="2" value="1.00000"/>
  <variable name="x_0_5" index="4" value="1.00000"/>
  <variable name="x_0_7" index="6" value="1.00000"/>
  <variable name="x_0_9" index="8" value="1.00000"/>
  <variable name="x_0_10" index="9" value="1.00000"/>
  <variable name="x_0_12" index="11" value="1.00000"/>
  <variable name="x_0_14" index="13" value="1.00000"/>
  <variable name="x_0_15" index="14" value="1.00000"/>
  <variable name="x_0_16" index="15" value="1.00000"/>
  <variable name="x_1_0" index="16" value="1.00000"/>
  <variable name="x_2_0" index="32" value="1.00000"/>
  <variable name="x_3_8" index="55" value="1.00000"/>
  <variable name="x_4_0" index="64" value="1.00000"/>
  <variable name="x_5_0" index="80" value="1.00000"/>
  <variable name="x_6_0" index="96" value="1.00000"/>
  <variable name="x_7_6" index="118" value="1.00000"/>
  <variable name="x_8_0" index="128" value="1.00000"/>
  <variable name="x_9_0" index="144" value="1.00000"/>
  <variable name="x_10_0" index="160" value="1.00000"/>
  <variable name="x_11_0" index="176" value="1.00000"/>
  <variable name="x_12_0" index="192" value="1.00000"/>
  <variable name="x_13_11" index="219" value="1.00000"/>
  <variable name="x_14_0" index="224" value="1.00000"/>
  <variable name="x_15_13" index="253" value="1.00000"/>
  <variable name="x_16_4" index="260" value="1.00000"/>
  <variable name="u_1" index="272" value="42.00000"/>
  <variable name="u_2" index="273" value="19.00000"/>
  <variable name="u_3" index="274" value="25.00000"/>
  <variable name="u_4" index="275" value="39.00000"/>
  <variable name="u_5" index="276" value="42.00000"/>
  <variable name="u_6" index="277" value="42.00000"/>
  <variable name="u_7" index="278" value="39.00000"/>
  <variable name="u_8" index="279" value="42.00000"/>
  <variable name="u_9" index="280" value="35.00000"/>
  <variable name="u_10" index="281" value="33.00000"/>
  <variable name="u_11" index="282" value="41.00000"/>
  <variable name="u_12" index="283" value="28.00000"/>
  <variable name="u_13" index="284" value="22.00000"/>
  <variable name="u_14" index="285" value="41.00000"/>
  <variable name="u_15" index="286" value="19.00000"/>
  <variable name="u_16" index="287" value="18.00000"/>
 </variables>
</CPLEXSolution>
